1 1 2 0
1 3 -4 0
1 3 -5 0
1 -6 7 0
1 -6 -8 0
1 -6 -9 0
1 6 -10 0
1 11 12 0
1 -11 -2 0
1 11 -6 0
1 13 14 0
1 13 -15 0
1 -13 1 0
1 -5 -16 0
1 5 -17 0
1 -5 -6 0
1 2 11 0
1 -2 3 0
1 -2 18 0
1 -2 -19 0
1 2 -6 0
1 -10 20 0
1 -10 21 0
1 -17 -8 0
1 -22 8 0
1 22 -17 0
1 15 9 0
1 -23 7 0
1 -23 12 0
1 -23 -8 0
1 9 -12 0
1 -9 -11 0
1 9 -24 0
1 -9 15 0
1 -9 17 0
1 12 -25 0
1 12 26 0
1 8 -11 0
1 27 28 0
1 25 -14 0
1 25 -27 0
1 -24 -12 0
1 29 -30 0
1 -31 29 0
1 32 -25 0
1 -32 24 0
1 33 -29 0
1 -33 23 0
1 4 3 0
1 4 34 0
1 -35 -36 0
1 -35 -37 0
1 38 36 0
1 -39 40 0
1 -39 -38 0
1 -39 41 0
1 -36 39 0
1 36 42 0
1 36 -41 0
1 -43 -44 0
1 43 -38 0
1 43 -41 0
1 43 45 0
1 -46 -47 0
1 48 -37 0
1 20 -48 0
1 -19 -49 0
1 -19 -50 0
1 -19 -51 0
1 -40 49 0
1 -40 52 0
1 40 -36 0
1 40 -37 0
1 -40 53 0
1 54 -30 0
1 -54 -40 0
1 54 -55 0
1 54 56 0
1 54 48 0
1 -50 40 0
1 50 -56 0
1 50 19 0
1 49 -57 0
1 -49 58 0
1 -49 55 0
1 49 48 0
1 37 59 0
1 37 -55 0
1 -37 -48 0
1 60 -5 0
1 -14 -59 0
1 14 -8 0
1 -56 -8 0
1 -30 61 0
1 -30 -62 0
1 -30 63 0
1 52 64 0
1 -53 14 0
1 53 40 0
1 -53 -65 0
1 53 66 0
1 -53 56 0
1 -53 -67 0
1 -62 -51 0
1 -62 -67 0
1 -51 -30 0
1 51 -60 0
1 -66 52 0
1 66 -63 0
1 -66 21 0
1 -66 -64 0
1 -68 16 0
1 68 -63 0
1 69 -68 0
1 -69 -18 0
1 69 70 0
1 69 21 0
1 -63 16 0
1 63 -68 0
1 -63 -71 0
1 16 -68 0
1 -16 66 0
1 16 56 0
1 16 71 0
1 16 -69 0
1 18 -72 0
1 -18 73 0
1 -18 67 0
1 -18 -21 0
1 21 -74 0
1 -75 31 0
1 71 28 0
1 71 76 0
1 77 -26 0
1 -77 78 0
1 -77 -70 0
1 -76 -26 0
1 -76 79 0
1 76 -9 0
1 76 -80 0
1 76 -81 0
1 -76 -78 0
1 -76 -71 0
1 -26 -75 0
1 -26 68 0
1 70 -8 0
1 -70 -82 0
1 83 -75 0
1 83 -84 0
1 83 -73 0
1 83 78 0
1 83 -69 0
1 -85 -26 0
1 -85 -81 0
1 79 26 0
1 -79 -86 0
1 80 -87 0
1 -80 88 0
1 -80 -89 0
1 -90 79 0
1 90 85 0
1 88 -91 0
1 88 79 0
1 -88 92 0
1 93 85 0
1 93 -77 0
1 -93 -84 0
1 -93 -78 0
1 -87 94 0
1 87 85 0
1 -95 96 0
1 -97 -98 0
1 -99 -98 0
1 99 -96 0
1 -99 -100 0
1 -101 -98 0
1 -101 -38 0
1 -101 -99 0
1 102 44 0
1 -102 -103 0
1 96 -44 0
1 -96 -104 0
1 96 103 0
1 105 106 0
1 -98 101 0
1 -45 46 0
1 -45 -102 0
1 -44 20 0
1 44 -100 0
1 44 46 0
1 -44 102 0
1 -103 43 0
1 103 107 0
1 -103 -108 0
1 103 19 0
1 103 -109 0
1 107 43 0
1 -107 -96 0
1 107 -110 0
1 -107 -108 0
1 -107 -103 0
1 108 -111 0
1 -108 103 0
1 -109 -112 0
1 109 -107 0
1 -109 -113 0
1 -100 -112 0
1 100 44 0
1 -100 45 0
1 -41 -114 0
1 -41 43 0
1 41 -59 0
1 -59 -115 0
1 59 46 0
1 59 -36 0
1 -59 37 0
1 -59 116 0
1 111 61 0
1 -111 -117 0
1 111 -115 0
1 111 113 0
1 -111 118 0
1 -61 -115 0
1 -61 -119 0
1 -114 120 0
1 119 -57 0
1 -119 -61 0
1 119 103 0
1 119 120 0
1 -116 -103 0
1 -115 121 0
1 -115 -111 0
1 115 41 0
1 115 120 0
1 -115 -116 0
1 -115 122 0
1 -55 -123 0
1 55 -51 0
1 -57 -123 0
1 -57 117 0
1 -57 -119 0
1 -57 -55 0
1 -57 -47 0
1 57 -42 0
1 124 -125 0
1 124 -126 0
1 -127 -124 0
1 127 -126 0
1 -117 128 0
1 117 55 0
1 -42 -72 0
1 42 -124 0
1 42 -36 0
1 123 129 0
1 47 -130 0
1 -47 124 0
1 47 -55 0
1 -47 -131 0
1 65 -132 0
1 -65 52 0
1 -67 -126 0
1 67 51 0
1 -67 -120 0
1 72 -58 0
1 -72 133 0
1 72 -134 0
1 -134 -72 0
1 134 -135 0
1 134 -42 0
1 132 86 0
1 -132 -74 0
1 -132 -136 0
1 132 137 0
1 -133 50 0
1 133 -134 0
1 133 127 0
1 58 -72 0
1 58 -67 0
1 126 65 0
1 -126 -37 0
1 74 -83 0
1 74 -132 0
1 -74 135 0
1 73 -16 0
1 -86 -138 0
1 -86 139 0
1 -89 140 0
1 89 80 0
1 141 -142 0
1 141 74 0
1 -141 143 0
1 -141 -73 0
1 139 -141 0
1 -139 -143 0
1 139 134 0
1 -135 -142 0
1 -135 144 0
1 135 -89 0
1 -135 134 0
1 -145 74 0
1 -145 -134 0
1 146 147 0
1 146 139 0
1 -84 -141 0
1 -84 -70 0
1 -84 93 0
1 84 148 0
1 149 -150 0
1 -143 -149 0
1 -143 151 0
1 -143 152 0
1 -140 149 0
1 140 -146 0
1 140 63 0
1 153 16 0
1 153 154 0
1 155 -154 0
1 155 -156 0
1 155 84 0
1 -155 89 0
1 91 -142 0
1 -91 140 0
1 91 -93 0
1 -92 -151 0
1 92 -157 0
1 92 -140 0
1 -158 -94 0
1 -159 -160 0
1 -152 -91 0
1 152 -149 0
1 -152 -161 0
1 -152 -92 0
1 152 -76 0
1 -152 -162 0
1 152 163 0
1 152 158 0
1 -150 -164 0
1 -150 -143 0
1 -82 151 0
1 -82 164 0
1 -82 159 0
1 -82 143 0
1 -82 165 0
1 151 154 0
1 -151 82 0
1 -151 -163 0
1 151 -166 0
1 151 -167 0
1 -168 -160 0
1 -168 152 0
1 161 -152 0
1 161 -169 0
1 170 -152 0
1 -171 -94 0
1 -172 159 0
1 -160 172 0
1 160 -159 0
1 169 -161 0
1 -169 -159 0
1 169 93 0
1 -169 163 0
1 -169 170 0
1 -169 -158 0
1 -94 -159 0
1 -94 -173 0
1 94 -170 0
1 -174 175 0
1 -175 -176 0
1 175 -177 0
1 -178 -176 0
1 -178 177 0
1 179 -180 0
1 179 -176 0
1 -181 -110 0
1 181 182 0
1 182 183 0
1 -182 -45 0
1 -183 98 0
1 -183 44 0
1 183 105 0
1 -184 176 0
1 -184 -181 0
1 184 180 0
1 -110 185 0
1 -110 105 0
1 186 187 0
1 -186 106 0
1 -186 -179 0
1 -186 188 0
1 -186 -178 0
1 -189 -190 0
1 -189 -106 0
1 189 110 0
1 189 186 0
1 -189 113 0
1 189 104 0
1 189 178 0
1 -191 -184 0
1 191 -182 0
1 -191 -178 0
1 -180 187 0
1 180 -110 0
1 -104 -106 0
1 -104 -185 0
1 106 98 0
1 -106 -102 0
1 113 -109 0
1 113 -189 0
1 -112 192 0
1 -112 -193 0
1 -185 104 0
1 192 -121 0
1 192 112 0
1 -192 194 0
1 192 -122 0
1 193 -195 0
1 -193 -112 0
1 -193 196 0
1 -195 197 0
1 195 106 0
1 195 193 0
1 -195 104 0
1 194 -116 0
1 121 198 0
1 121 -100 0
1 -121 185 0
1 -122 -125 0
1 -122 127 0
1 -199 112 0
1 -199 198 0
1 -199 -200 0
1 -199 -201 0
1 199 -113 0
1 -198 112 0
1 198 96 0
1 198 125 0
1 198 -194 0
1 -202 -121 0
1 -202 112 0
1 202 -105 0
1 -202 -203 0
1 204 -205 0
1 -204 202 0
1 -204 -206 0
1 -201 -198 0
1 201 207 0
1 201 115 0
1 201 47 0
1 -201 199 0
1 -201 208 0
1 120 119 0
1 -120 -209 0
1 129 123 0
1 -129 72 0
1 129 209 0
1 129 -208 0
1 -210 129 0
1 210 207 0
1 -208 211 0
1 -208 207 0
1 -208 -212 0
1 208 213 0
1 -207 108 0
1 207 214 0
1 -207 201 0
1 -207 -125 0
1 -207 -210 0
1 209 -211 0
1 -215 201 0
1 -215 125 0
1 215 216 0
1 215 -120 0
1 -130 117 0
1 130 200 0
1 130 -217 0
1 130 218 0
1 -212 -217 0
1 -212 47 0
1 -212 126 0
1 138 -86 0
1 -138 -219 0
1 -219 -220 0
1 -219 128 0
1 219 -58 0
1 219 207 0
1 -219 -89 0
1 -219 -221 0
1 -220 -114 0
1 220 138 0
1 -220 -218 0
1 220 222 0
1 -220 -223 0
1 220 137 0
1 218 -147 0
1 -218 129 0
1 218 -210 0
1 -221 129 0
1 -217 -224 0
1 217 225 0
1 -217 -211 0
1 217 115 0
1 147 146 0
1 147 -133 0
1 -137 226 0
1 137 147 0
1 -137 -84 0
1 -137 126 0
1 227 225 0
1 -227 218 0
1 223 -227 0
1 -223 -228 0
1 -223 -143 0
1 -223 -131 0
1 223 229 0
1 -223 145 0
1 128 -142 0
1 -128 -117 0
1 -229 -142 0
1 -229 -227 0
1 229 230 0
1 -229 231 0
1 -226 227 0
1 -226 -131 0
1 131 -223 0
1 131 -232 0
1 142 -91 0
1 142 -128 0
1 -142 -145 0
1 -142 -139 0
1 157 -135 0
1 231 -144 0
1 -231 233 0
1 -231 -229 0
1 -231 -234 0
1 231 -158 0
1 235 231 0
1 235 155 0
1 -235 236 0
1 136 237 0
1 -136 231 0
1 -238 239 0
1 -228 58 0
1 -228 236 0
1 228 -240 0
1 236 -241 0
1 236 240 0
1 236 -231 0
1 154 151 0
1 154 155 0
1 166 242 0
1 -166 -243 0
1 166 136 0
1 -239 171 0
1 -239 -136 0
1 239 -244 0
1 233 -239 0
1 -233 154 0
1 233 -245 0
1 233 167 0
1 234 246 0
1 -234 154 0
1 -234 235 0
1 -234 -245 0
1 -234 -247 0
1 234 231 0
1 -144 -246 0
1 -244 -167 0
1 163 242 0
1 -164 242 0
1 -164 -151 0
1 164 -150 0
1 -164 -233 0
1 164 -152 0
1 164 -163 0
1 247 248 0
1 247 233 0
1 -247 156 0
1 -247 165 0
1 247 169 0
1 -247 234 0
1 -248 242 0
1 248 249 0
1 249 -250 0
1 -249 -251 0
1 249 248 0
1 249 252 0
1 249 163 0
1 243 -252 0
1 243 249 0
1 -243 -163 0
1 -156 -242 0
1 -242 253 0
1 -242 247 0
1 242 163 0
1 242 166 0
1 -173 -254 0
1 -173 -255 0
1 -173 169 0
1 -173 172 0
1 251 -243 0
1 -251 -249 0
1 -251 -169 0
1 252 -256 0
1 252 254 0
1 -252 -257 0
1 -252 -249 0
1 256 -253 0
1 256 -255 0
1 256 -257 0
1 -256 165 0
1 -162 -256 0
1 162 -258 0
1 -255 -252 0
1 -255 -162 0
1 -165 -256 0
1 165 -252 0
1 254 251 0
1 -254 247 0
1 259 257 0
1 -259 260 0
1 261 -258 0
1 258 -162 0
1 -258 262 0
1 -262 172 0
1 257 256 0
1 -257 258 0
1 263 256 0
1 -264 -252 0
1 264 -259 0
1 188 -265 0
1 188 189 0
1 -187 121 0
1 -266 -195 0
1 -266 -190 0
1 267 -196 0
1 267 -268 0
1 267 203 0
1 269 -266 0
1 -270 188 0
1 -265 271 0
1 196 195 0
1 196 267 0
1 -206 -272 0
1 206 -193 0
1 -206 185 0
1 -206 -202 0
1 -206 -269 0
1 -205 -273 0
1 -205 -267 0
1 -205 274 0
1 -205 275 0
1 203 -267 0
1 203 -274 0
1 -203 275 0
1 -272 -200 0
1 272 -196 0
1 272 266 0
1 -272 216 0
1 272 -276 0
1 -190 200 0
1 -190 -276 0
1 190 189 0
1 -277 -180 0
1 -277 278 0
1 200 -215 0
1 -200 -272 0
1 200 -202 0
1 -200 209 0
1 -276 -198 0
1 -276 -215 0
1 276 272 0
1 276 -275 0
1 -276 -279 0
1 -276 -202 0
1 280 -281 0
1 -280 -275 0
1 280 216 0
1 -216 190 0
1 216 282 0
1 279 -200 0
1 -279 283 0
1 -273 284 0
1 273 211 0
1 -273 205 0
1 -273 285 0
1 -273 -276 0
1 -275 280 0
1 275 286 0
1 275 203 0
1 -287 -205 0
1 -287 -288 0
1 211 289 0
1 -285 -215 0
1 285 208 0
1 -225 273 0
1 225 290 0
1 -225 -213 0
1 291 -273 0
1 291 214 0
1 -291 -288 0
1 291 282 0
1 -282 -292 0
1 -282 -293 0
1 289 224 0
1 289 292 0
1 289 222 0
1 -281 -211 0
1 281 294 0
1 -281 291 0
1 281 -202 0
1 -295 -296 0
1 -295 284 0
1 -295 280 0
1 224 220 0
1 224 289 0
1 224 -218 0
1 224 -282 0
1 -224 -221 0
1 -222 289 0
1 222 -283 0
1 -222 -131 0
1 -222 -282 0
1 -297 -298 0
1 -297 214 0
1 -297 299 0
1 -297 213 0
1 292 -297 0
1 -292 -289 0
1 -292 -300 0
1 213 224 0
1 -213 -292 0
1 -213 291 0
1 214 -301 0
1 -214 -241 0
1 290 -302 0
1 290 -292 0
1 290 -209 0
1 298 297 0
1 -298 292 0
1 -298 -290 0
1 -303 226 0
1 -303 214 0
1 303 -299 0
1 304 -305 0
1 304 241 0
1 304 -300 0
1 -304 230 0
1 -304 166 0
1 -304 -306 0
1 304 -213 0
1 241 -228 0
1 -241 -299 0
1 -241 213 0
1 307 -297 0
1 307 -220 0
1 307 308 0
1 -307 -241 0
1 -299 -297 0
1 299 307 0
1 299 292 0
1 299 -304 0
1 -309 -310 0
1 -309 300 0
1 309 311 0
1 -309 304 0
1 -300 -217 0
1 -300 -312 0
1 -300 -304 0
1 -240 -244 0
1 -308 -232 0
1 -308 -236 0
1 -313 307 0
1 -313 -247 0
1 -313 -314 0
1 -315 248 0
1 -315 -316 0
1 -315 305 0
1 315 317 0
1 -315 -313 0
1 315 314 0
1 -315 -318 0
1 315 -244 0
1 305 319 0
1 305 -230 0
1 230 253 0
1 230 -241 0
1 -230 320 0
1 -230 -245 0
1 230 -229 0
1 321 304 0
1 -232 -313 0
1 -245 305 0
1 245 -317 0
1 246 317 0
1 246 230 0
1 -319 -237 0
1 319 -322 0
1 -319 -314 0
1 -253 305 0
1 -253 -156 0
1 -237 -253 0
1 -237 -246 0
1 -237 323 0
1 -237 -245 0
1 237 -318 0
1 318 -253 0
1 318 315 0
1 318 237 0
1 -318 -245 0
1 -318 -324 0
1 -317 -315 0
1 314 -319 0
1 -323 -243 0
1 323 -254 0
1 -323 325 0
1 -323 -326 0
1 -323 -327 0
1 -328 -329 0
1 328 -326 0
1 324 326 0
1 -329 328 0
1 329 319 0
1 -327 -234 0
1 -330 -287 0
1 331 -190 0
1 331 330 0
1 -331 -285 0
1 -331 -332 0
1 333 334 0
1 333 287 0
1 333 271 0
1 -288 -333 0
1 -288 268 0
1 288 332 0
1 -268 -296 0
1 332 335 0
1 -336 337 0
1 336 331 0
1 336 -271 0
1 271 -333 0
1 -271 336 0
1 284 287 0
1 -284 281 0
1 283 287 0
1 283 -284 0
1 -283 295 0
1 -283 268 0
1 283 -279 0
1 296 297 0
1 -296 295 0
1 -296 -268 0
1 296 -338 0
1 -296 286 0
1 296 332 0
1 -294 -295 0
1 294 292 0
1 -294 -338 0
1 -294 286 0
1 338 333 0
1 -338 -272 0
1 -338 288 0
1 338 339 0
1 334 284 0
1 334 -339 0
1 340 -284 0
1 -278 -296 0
1 278 -333 0
1 -278 339 0
1 341 342 0
1 -341 282 0
1 343 295 0
1 -343 298 0
1 343 -338 0
1 -306 -302 0
1 302 -338 0
1 302 293 0
1 302 306 0
1 342 344 0
1 -342 -301 0
1 -342 343 0
1 344 316 0
1 344 345 0
1 -286 -346 0
1 286 -347 0
1 -348 -349 0
1 -348 -350 0
1 348 -351 0
1 348 345 0
1 311 -309 0
1 -311 -290 0
1 301 352 0
1 301 -298 0
1 -301 -353 0
1 -301 -300 0
1 -354 355 0
1 -316 -309 0
1 -316 -346 0
1 -316 356 0
1 316 355 0
1 293 310 0
1 353 -289 0
1 352 -357 0
1 -352 -311 0
1 312 356 0
1 312 232 0
1 312 -293 0
1 -310 -321 0
1 -310 299 0
1 -310 -293 0
1 -310 -355 0
1 -322 321 0
1 -322 -358 0
1 -322 359 0
1 -322 360 0
1 361 362 0
1 361 358 0
1 -355 316 0
1 355 213 0
1 356 -361 0
1 356 -312 0
1 360 -357 0
1 -360 -316 0
1 363 -361 0
1 363 310 0
1 363 -360 0
1 -363 -312 0
1 320 -364 0
1 320 -232 0
1 365 366 0
1 365 358 0
1 365 367 0
1 -367 368 0
1 -367 317 0
1 -367 365 0
1 368 361 0
1 368 -367 0
1 -369 320 0
1 -339 -370 0
1 339 334 0
1 339 351 0
1 -339 371 0
1 351 -348 0
1 -351 301 0
1 351 -286 0
1 -351 278 0
1 372 373 0
1 372 -354 0
1 372 370 0
1 -371 268 0
1 371 339 0
1 -335 374 0
1 -335 346 0
1 -335 332 0
1 337 372 0
1 -370 -351 0
1 -345 312 0
1 345 -342 0
1 -345 375 0
1 -350 310 0
1 -350 -345 0
1 -350 335 0
1 359 -349 0
1 359 -376 0
1 -374 377 0
1 374 -375 0
1 -376 -346 0
1 -376 -338 0
1 376 -345 0
1 378 -345 0
1 379 340 0
1 -379 372 0
1 373 -374 0
1 373 -359 0
1 364 378 0
1 -364 377 0
1 -364 -353 0
1 357 349 0
1 357 -363 0
1 357 364 0
1 -366 380 0
1 -366 349 0
1 -366 -363 0
1 -366 -347 0
1 -381 -380 0
1 -381 364 0
1 -377 381 0
1 -347 -380 0
1 347 -364 0
1 -349 359 0
